Problem:    b
Rows:       8
Columns:    9
Non-zeros:  19
Status:     OPTIMAL
Objective:  z = -8640000 (MAXimum)

   No.   Row name   St   Activity     Lower bound   Upper bound    Marginal
------ ------------ -- ------------- ------------- ------------- -------------
     1 z            B      -8.29e+06                             
     2 entradasGold NS          -100          -100             =          6400 
     3 entradasSilver
                    NS             0            -0             =         16000 
     4 merchandisingTotal
                    NS             0            -0             =           800 
     5 merchandisingGold
                    NL             0            -0                        -800 
     6 merchandisingSilver
                    NL             0            -0                        -800 
     7 capacidadPredio
                    B            350                        8000 
     8 minimasSilver
                    NL           500           500                      -15300 

   No. Column name  St   Activity     Lower bound   Upper bound    Marginal
------ ------------ -- ------------- ------------- ------------- -------------
     1 Cg           B            100             0               
     2 Cs           B            500             0               
     3 Cm           B          10800             0               
     4 Pg           NL             0             0                       -6400 
     5 Ps           NL             0             0                      -16000 
     6 Cgv          NL             0             0                       -4900 
     7 Csv          B            500             0               
     8 Cmg          B            800             0               
     9 Cms          B          10000             0               

Karush-Kuhn-Tucker optimality conditions:

KKT.PE: max.abs.err = 0.00e+00 on row 0
        max.rel.err = 0.00e+00 on row 0
        High quality

KKT.PB: max.abs.err = 0.00e+00 on row 0
        max.rel.err = 0.00e+00 on row 0
        High quality

KKT.DE: max.abs.err = 0.00e+00 on column 0
        max.rel.err = 0.00e+00 on column 0
        High quality

KKT.DB: max.abs.err = 0.00e+00 on row 0
        max.rel.err = 0.00e+00 on row 0
        High quality

End of output
